1 1175 5
2 983 5
3 966 5
5 925 5
8 899 5
12 892 5
19 885 5
46 878 5
182 873 5
324 870 5
368 867 5
385 864 5
471 863 5
886 861 5



1 1015 5
2 973 5
3 933 5
8 910 5
10 886 5
26 879 5
83 875 5
100 870 5
376 855 5



1 1122 5
2 917 5
9 912 5
19 901 5
24 897 5
31 884 5
37 868 5
116 864 5
212 858 5
536 856 5
930 850 5



1 1025 5
2 977 5
3 922 5
4 906 5
6 897 5
9 870 5
288 864 5
313 857 5



1 1130 5
2 948 5
3 944 5
5 935 5
8 920 5
9 898 5
16 892 5
18 887 5
53 878 5
72 858 5
801 856 5
957 851 5



